20
1 0 6
2 0 9
2 1 31
3 0 9
3 1 26
3 2 21
4 0 28
4 2 31
4 3 18
5 1 14
5 2 28
5 3 19
5 4 39
6 0 39
6 1 23
6 2 11
6 3 34
6 4 10
6 5 13
7 0 33
7 1 35
7 2 11
7 3 10
7 4 2
7 5 17
7 6 8
8 0 4
8 1 25
8 2 11
8 4 26
8 5 19
8 6 33
8 7 6
9 0 7
9 1 7
9 2 20
9 3 14
9 4 22
9 5 10
9 6 7
9 7 14
9 8 12
10 0 18
10 3 39
10 4 31
10 5 9
10 6 24
10 7 22
10 8 29
10 9 13
11 1 26
11 2 24
11 3 39
11 4 40
11 5 17
11 6 23
11 8 20
11 9 5
11 10 10
12 0 28
12 1 27
12 2 3
12 3 3
12 4 15
12 5 24
12 6 5
12 7 39
12 8 25
12 9 7
12 10 32
12 11 5
13 0 2
13 1 18
13 2 40
13 3 23
13 4 17
13 5 15
13 6 26
13 7 30
13 8 4
13 9 20
13 11 1
13 12 19
14 0 5
14 1 27
14 2 28
14 3 23
14 4 12
14 5 25
14 6 31
14 7 32
14 8 33
14 9 34
14 10 21
14 11 33
14 12 35
15 0 21
15 1 32
15 2 5
15 3 23
15 4 20
15 5 39
15 6 39
15 7 39
15 8 35
15 9 37
15 10 20
15 11 3
15 12 26
15 14 14
16 0 30
16 1 13
16 2 10
16 3 3
16 4 15
16 5 37
16 6 29
16 7 18
16 8 12
16 9 37
16 10 5
16 11 10
16 12 12
16 13 38
16 14 14
16 15 3
17 0 34
17 1 8
17 2 7
17 3 38
17 4 32
17 5 31
17 6 39
17 7 19
17 8 38
17 9 7
17 10 18
17 11 39
17 12 14
17 13 38
17 14 3
17 15 23
17 16 11
18 0 7
18 1 22
18 2 35
18 3 12
18 4 40
18 5 35
18 6 38
18 7 6
18 8 28
18 9 16
18 10 31
18 11 32
18 13 34
18 14 35
18 15 13
18 16 12
18 17 21
19 0 11
19 1 5
19 2 33
19 3 37
19 4 16
19 7 17
19 8 26
19 9 19
19 10 29
19 11 22
19 12 34
19 13 31
19 14 33
19 15 37
19 16 2
19 17 13
19 18 31
